set Z;
 set Y;
 param A{r in Z, m in Y} default 0, binary;
param B{r in Z} default 1, integer;
 var Route{m in Y}, binary;
 minimize cost: sum{m in Y} Route[m];
 subject to covers{r in Z}: sum{m in Y} A[r,m]*Route[m]>=B[r];
 solve; 
 printf {m in Y:  Route[m] == 1} "%s ", m > "C:/Users/Guilherme/Documents/GitHub/SirisOnRails/SirisOnRails/Results.txt";
 data;
set Z:= Z0 Z1 Z2 Z3 Z4 Z5 Z6 Z7 Z8 Z9 Z10 Z11 Z12 Z13 Z14 Z15 Z16 Z17 Z18 Z19 Z20 Z21 Z22 Z23 Z24 Z25 Z26 Z27 Z28 Z29 Z30 Z31 Z32 Z33 Z34 Z35 Z36 Z37 Z38 Z39 Z40 Z41 Z42 Z43 Z44 Z45 Z46 Z47 Z48 Z49 Z50 Z51 Z52 Z53 Z54 Z55 Z56 Z57 Z58 Z59 Z60 Z61 Z62 Z63 Z64 Z65 Z66 Z67 Z68 Z69 Z70 Z71 Z72 Z73 Z74 Z75 Z76 Z77 Z78 Z79 Z80 Z81 Z82 Z83 Z84 Z85 Z86 Z87 Z88 Z89 Z90 Z91 Z92 Z93 Z94 Z95 Z96 Z97 Z98 Z99 Z100 Z101 Z102 Z103 Z104 Z105 Z106 Z107 Z108 Z109 Z110 Z111 Z112 Z113 Z114 Z115 Z116 Z117 Z118 Z119 Z120 Z121 Z122 Z123 Z124 Z125 Z126 Z127 Z128 Z129 Z130 Z131 Z132 Z133 Z134 Z135 Z136 Z137 Z138 Z139 Z140 Z141 Z142 Z143 Z144 Z145 Z146 Z147 Z148 Z149 Z150 Z151 Z152 Z153 Z154 Z155 Z156 Z157 Z158 Z159 Z160 Z161 Z162 Z163 Z164 Z165 Z166 Z167 Z168 Z169 Z170 Z171 Z172 Z173 Z174 Z175 Z176 Z177 Z178 Z179 Z180 Z181 Z182 Z183 Z184 Z185 Z186 Z187 Z188 Z189 Z190 Z191 Z192 Z193 Z194 Z195 Z196 Z197 Z198 Z199 Z200 Z201 Z202 Z203 Z204 Z205 Z206 Z207 Z208 Z209 Z210 Z211 Z212 Z213 Z214 Z215 Z216 Z217 Z218 Z219 Z220 Z221 Z222 Z223 Z224 Z225 Z226 Z227 Z228 Z229 Z230 Z231 Z232 Z233 Z234 Z235 Z236 Z237 Z238 Z239 Z240 Z241 Z242 Z243 Z244 Z245 Z246 Z247 Z248 Z249 Z250 Z251 Z252 Z253 Z254 Z255 Z256 Z257 Z258 Z259 Z260 Z261 Z262 Z263 Z264 Z265 Z266 Z267 Z268 Z269 Z270 Z271 Z272 Z273 Z274 Z275 Z276 Z277 Z278 Z279 Z280 Z281 Z282 Z283 Z284 Z285 Z286 Z287 Z288 Z289 Z290 Z291 Z292 Z293 Z294 Z295 Z296 Z297 Z298 Z299 Z300 Z301 Z302 Z303 Z304 Z305 Z306 Z307 Z308 Z309 Z310 Z311 Z312 Z313 Z314 Z315 Z316 Z317 Z318 Z319 Z320 Z321 Z322 Z323 Z324 Z325 Z326 Z327 Z328 Z329 Z330 Z331 Z332 Z333 Z334 Z335 Z336 Z337 Z338 Z339 Z340 Z341 Z342 Z343 Z344 Z345 Z346 Z347 Z348 Z349 Z350 Z351 Z352 Z353 Z354 Z355 Z356 Z357 Z358 Z359 Z360 Z361 Z362 Z363 Z364 Z365 Z366 Z367 Z368 Z369 Z370 Z371 Z372 Z373 Z374 Z375 Z376 Z377 Z378 Z379 Z380 Z381 Z382 Z383 Z384 Z385 Z386 Z387 Z388 Z389 Z390 Z391 Z392 Z393 Z394 Z395 Z396 Z397 Z398 Z399 Z400 Z401 Z402 Z403 Z404 Z405 Z406 Z407 Z408 Z409 Z410 Z411 Z412 Z413 Z414 Z415 Z416 Z417 Z418 Z419 Z420 Z421 Z422 Z423 Z424 Z425 Z426 Z427 Z428 Z429 Z430 Z431 Z432 Z433 Z434 Z435 Z436 Z437 Z438 Z439 Z440 Z441 Z442 Z443 Z444 Z445 Z446 Z447 Z448 Z449 Z450 Z451 Z452 Z453 Z454 Z455 Z456 Z457 Z458 Z459 Z460 Z461 Z462 Z463 Z464 Z465 Z466 Z467 Z468 Z469 Z470 Z471 Z472 Z473 Z474 Z475 Z476 Z477 Z478 Z479 Z480 Z481 Z482 Z483 Z484 Z485 Z486 Z487 Z488 Z489 Z490 Z491 Z492 Z493 Z494 Z495 Z496 Z497 Z498 Z499 Z500 Z501 Z502 Z503 Z504 Z505 Z506 Z507 Z508 Z509 Z510 Z511 Z512 Z513 Z514 Z515 Z516 Z517 Z518 Z519 Z520 Z521 Z522 Z523 Z524 Z525 Z526 Z527 Z528 Z529 Z530 Z531 Z532 Z533 Z534 Z535 Z536 Z537 Z538 Z539 Z540 Z541 Z542 Z543 Z544 Z545 Z546 Z547 Z548 Z549 Z550 Z551 Z552 Z553 Z554 Z555 Z556 Z557 Z558 Z559 Z560 Z561 Z562 Z563 Z564 Z565 Z566 Z567 Z568 Z569 Z570 Z571 Z572 Z573 Z574 Z575 Z576 Z577 Z578 Z579 Z580 Z581 Z582 Z583 Z584 Z585 Z586 Z587 Z588 Z589 Z590 Z591 Z592 Z593 Z594 Z595 Z596 Z597 Z598 Z599 Z600 Z601 Z602 Z603 Z604 Z605 Z606 Z607 Z608 Z609 Z610 Z611 Z612 Z613 Z614 Z615 Z616 Z617 Z618 Z619 Z620 Z621 Z622 Z623 Z624 Z625 Z626 Z627 Z628 Z629 Z630 Z631 Z632 Z633 Z634 Z635 Z636 Z637 Z638 Z639 Z640 Z641 Z642 Z643 Z644 Z645 Z646 Z647 Z648 Z649 Z650 Z651 Z652 Z653 Z654 Z655 Z656 Z657 Z658 Z659 Z660 Z661 Z662 Z663 Z664 Z665 Z666 Z667 Z668 Z669 Z670 Z671 Z672 Z673 Z674 Z675 Z676 Z677 Z678 Z679 Z680 Z681 Z682 Z683 Z684 Z685 Z686 Z687 Z688 Z689 Z690 Z691 Z692 Z693 Z694 Z695 Z696 Z697 Z698 Z699 Z700 Z701 Z702 Z703 Z704 Z705 Z706 Z707 Z708 Z709 Z710 Z711 Z712 Z713 Z714 Z715 Z716 Z717 Z718 Z719 Z720 Z721 Z722 Z723 Z724 Z725 Z726 Z727 Z728 Z729 Z730 Z731 Z732 Z733 Z734 Z735 Z736 Z737 Z738 Z739 Z740 Z741 Z742 Z743 Z744 Z745 Z746 Z747 Z748 Z749 Z750 Z751 Z752 Z753 Z754 Z755 Z756 Z757 Z758 Z759 Z760 Z761 Z762 Z763 Z764 Z765 Z766 Z767 Z768 Z769 Z770 Z771 Z772 Z773 Z774 Z775 Z776 Z777 Z778 Z779 Z780 Z781 Z782 Z783 Z784 Z785 Z786 Z787 Z788 Z789 Z790 Z791 Z792 Z793 Z794 Z795 Z796 Z797 Z798 Z799 Z800 Z801 Z802 Z803 Z804 Z805 Z806 Z807 Z808 Z809 Z810 Z811 Z812 Z813 Z814 Z815 Z816 Z817 Z818 Z819 Z820 Z821 Z822 Z823 Z824 Z825 Z826 Z827 Z828 Z829 Z830 Z831 Z832 Z833 Z834 Z835 Z836 Z837 Z838 Z839 Z840 Z841 Z842 Z843 Z844 Z845 Z846 Z847 Z848 Z849 Z850 Z851 Z852 Z853 Z854 Z855 Z856 Z857 Z858 Z859 Z860 Z861 Z862 Z863 Z864 Z865 Z866 Z867 Z868 Z869 Z870 Z871 Z872 Z873 Z874 Z875 Z876 Z877 Z878 Z879 Z880 Z881 Z882 Z883 Z884 Z885 Z886 Z887 Z888 Z889 Z890 Z891 Z892 Z893 Z894 Z895 Z896 Z897 Z898 Z899 Z900 Z901 Z902 Z903 Z904 Z905 Z906 Z907 Z908 Z909 Z910 Z911 Z912 Z913 Z914 Z915 Z916 Z917 Z918 Z919 Z920 Z921 Z922 Z923 Z924 Z925 Z926 Z927 Z928 Z929 Z930 Z931 Z932 Z933 Z934 Z935 Z936 Z937 Z938 Z939 Z940 Z941 Z942 Z943 Z944 Z945 Z946 Z947 Z948 Z949 Z950 Z951 Z952 Z953 Z954 Z955 Z956 Z957 Z958 Z959 Z960 Z961 Z962 Z963 Z964 Z965 Z966 Z967 Z968 Z969 Z970 Z971 Z972 Z973 Z974 Z975 Z976 Z977 Z978 Z979 Z980 Z981 Z982 Z983 Z984 Z985 Z986 Z987 Z988 Z989 Z990 Z991 Z992 Z993 Z994 Z995 Z996 Z997 Z998 Z999 Z1000 Z1001 Z1002 Z1003 Z1004 Z1005 Z1006 Z1007 Z1008 Z1009 Z1010 Z1011 Z1012 Z1013 Z1014 Z1015 Z1016 Z1017 Z1018 Z1019 Z1020 ;
set Y:= Y0 Y1 Y2 Y3 Y4 Y5 Y6 Y7 Y8 Y9 Y10 Y11 Y12 Y13 Y14 Y15 Y16 Y17 Y18 Y19 Y20 Y21 Y22 Y23 Y24 Y25 Y26 Y27 Y28 Y29 Y30 Y31 Y32 Y33 Y34 Y35 Y36 Y37 Y38 Y39 Y40 Y41 Y42 Y43 Y44 Y45 Y46 Y47 Y48 Y49 Y50 Y51 Y52 Y53 Y54 Y55 Y56 Y57 Y58 Y59 Y60 Y61 Y62 Y63 Y64 Y65 Y66 Y67 Y68 Y69 Y70 Y71 Y72 Y73 Y74 Y75 Y76 Y77 Y78 Y79 Y80 Y81 Y82 Y83 Y84 Y85 Y86 Y87 Y88 Y89 Y90 Y91 Y92 Y93 Y94 Y95 Y96 Y97 Y98 Y99 Y100 Y101 Y102 Y103 Y104 Y105 Y106 Y107 Y108 Y109 Y110 Y111 Y112 Y113 Y114 Y115 Y116 Y117 Y118 Y119 Y120 Y121 Y122 Y123 Y124 Y125 Y126 Y127 Y128 Y129 Y130 Y131 Y132 Y133 Y134 Y135 Y136 Y137 Y138 Y139 Y140 Y141 Y142 Y143 Y144 Y145 Y146 Y147 Y148 Y149 Y150 Y151 Y152 Y153 Y154 Y155 Y156 Y157 Y158 Y159 Y160 Y161 Y162 Y163 Y164 Y165 Y166 Y167 Y168 Y169 Y170 Y171 Y172 Y173 Y174 Y175 Y176 Y177 Y178 Y179 Y180 Y181 Y182 Y183 Y184 Y185 Y186 Y187 Y188 Y189 Y190 Y191 Y192 Y193 Y194 Y195 Y196 Y197 Y198 Y199 Y200 Y201 Y202 Y203 Y204 Y205 Y206 Y207 Y208 Y209 Y210 Y211 Y212 Y213 Y214 Y215 Y216 Y217 Y218 Y219 Y220 Y221 Y222 Y223 Y224 Y225 Y226 Y227 Y228 Y229 Y230 Y231 Y232 Y233 Y234 Y235 Y236 Y237 Y238 Y239 Y240 Y241 Y242 Y243 Y244 Y245 Y246 Y247 Y248 Y249 Y250 Y251 Y252 Y253 Y254 Y255 Y256 Y257 Y258 Y259 Y260 Y261 Y262 Y263 Y264 Y265 Y266 Y267 Y268 Y269 Y270 Y271 Y272 Y273 Y274 Y275 Y276 Y277 Y278 Y279 Y280 Y281 Y282 Y283 Y284 Y285 Y286 Y287 Y288 Y289 Y290 Y291 Y292 Y293 Y294 Y295 Y296 Y297 Y298 Y299 Y300 Y301 Y302 Y303 Y304 Y305 Y306 Y307 Y308 Y309 Y310 Y311 Y312 Y313 Y314 Y315 Y316 Y317 Y318 Y319 Y320 Y321 Y322 Y323 Y324 Y325 Y326 Y327 Y328 Y329 Y330 Y331 Y332 Y333 Y334 Y335 Y336 Y337 Y338 Y339 Y340 Y341 Y342 Y343 Y344 Y345 Y346 Y347 Y348 Y349 Y350 Y351 Y352 Y353 Y354 Y355 Y356 Y357 Y358 Y359 Y360 Y361 Y362 Y363 Y364 Y365 Y366 Y367 Y368 Y369 Y370 Y371 Y372 Y373 Y374 Y375 Y376 Y377 Y378 Y379 Y380 Y381 Y382 Y383 Y384 Y385 Y386 Y387 Y388 Y389 Y390 Y391 Y392 Y393 Y394 Y395 Y396 Y397 Y398 Y399 Y400 Y401 Y402 Y403 Y404 Y405 Y406 Y407 Y408 Y409 Y410 Y411 Y412 Y413 Y414 Y415 Y416 Y417 Y418 Y419 Y420 Y421 Y422 Y423 Y424 Y425 Y426 Y427 Y428 Y429 Y430 Y431 Y432 Y433 Y434 Y435 Y436 Y437 Y438 Y439 Y440 Y441 Y442 Y443 Y444 Y445 Y446 Y447 Y448 Y449 Y450 Y451 Y452 Y453 Y454 Y455 Y456 Y457 Y458 Y459 Y460 Y461 Y462 Y463 Y464 Y465 Y466 Y467 Y468 Y469 Y470 Y471 Y472 Y473 Y474 Y475 Y476 Y477 Y478 Y479 Y480 Y481 Y482 Y483 Y484 Y485 Y486 Y487 Y488 Y489 Y490 Y491 Y492 Y493 Y494 Y495 Y496 Y497 Y498 Y499 Y500 Y501 Y502 Y503 Y504 Y505 Y506 Y507 Y508 Y509 Y510 Y511 Y512 Y513 Y514 Y515 Y516 Y517 Y518 Y519 Y520 Y521 Y522 Y523 Y524 Y525 Y526 Y527 Y528 Y529 Y530 Y531 Y532 Y533 Y534 Y535 Y536 Y537 Y538 Y539 Y540 Y541 Y542 Y543 Y544 Y545 Y546 Y547 Y548 Y549 Y550 Y551 Y552 Y553 Y554 Y555 Y556 Y557 Y558 Y559 Y560 Y561 Y562 Y563 Y564 Y565 Y566 Y567 Y568 Y569 Y570 Y571 Y572 Y573 Y574 Y575 Y576 Y577 Y578 Y579 Y580 Y581 Y582 Y583 Y584 Y585 Y586 Y587 Y588 Y589 Y590 Y591 Y592 Y593 Y594 Y595 Y596 Y597 Y598 Y599 Y600 Y601 Y602 Y603 Y604 Y605 Y606 Y607 Y608 Y609 Y610 Y611 Y612 Y613 Y614 Y615 Y616 Y617 Y618 Y619 Y620 Y621 Y622 Y623 Y624 Y625 Y626 Y627 Y628 Y629 Y630 Y631 Y632 Y633 Y634 Y635 Y636 Y637 Y638 Y639 Y640 Y641 Y642 Y643 Y644 Y645 Y646 Y647 Y648 Y649 Y650 Y651 Y652 Y653 Y654 Y655 Y656 Y657 Y658 Y659 Y660 Y661 Y662 Y663 Y664 Y665 Y666 Y667 Y668 Y669 Y670 Y671 Y672 Y673 Y674 Y675 Y676 Y677 Y678 Y679 Y680 Y681 Y682 Y683 Y684 Y685 Y686 Y687 Y688 Y689 Y690 Y691 Y692 Y693 Y694 Y695 Y696 Y697 Y698 Y699 Y700 Y701 Y702 Y703 Y704 Y705 Y706 Y707 Y708 Y709 Y710 Y711 Y712 Y713 Y714 Y715 Y716 Y717 Y718 Y719 Y720 Y721 Y722 Y723 Y724 Y725 Y726 Y727 Y728 Y729 Y730 Y731 Y732 Y733 Y734 Y735 Y736 Y737 Y738 Y739 Y740 Y741 Y742 Y743 Y744 Y745 Y746 Y747 Y748 Y749 Y750 Y751 Y752 Y753 Y754 Y755 Y756 Y757 Y758 Y759 Y760 Y761 Y762 Y763 Y764 Y765 Y766 Y767 Y768 Y769 Y770 Y771 Y772 Y773 Y774 Y775 Y776 Y777 Y778 Y779 Y780 Y781 Y782 Y783 Y784 Y785 Y786 Y787 Y788 Y789 Y790 Y791 Y792 Y793 Y794 Y795 Y796 Y797 Y798 Y799 Y800 Y801 Y802 Y803 Y804 Y805 Y806 Y807 Y808 Y809 Y810 Y811 Y812 Y813 Y814 Y815 Y816 Y817 Y818 Y819 Y820 Y821 Y822 Y823 Y824 Y825 Y826 Y827 Y828 Y829 Y830 Y831 Y832 Y833 Y834 Y835 Y836 Y837 Y838 Y839 Y840 Y841 Y842 Y843 Y844 Y845 Y846 Y847 Y848 Y849 Y850 Y851 Y852 Y853 Y854 Y855 Y856 Y857 Y858 Y859 Y860 Y861 Y862 Y863 Y864 Y865 Y866 Y867 Y868 Y869 Y870 Y871 Y872 Y873 Y874 Y875 Y876 Y877 Y878 Y879 Y880 Y881 Y882 Y883 Y884 Y885 Y886 Y887 Y888 Y889 Y890 Y891 Y892 Y893 Y894 Y895 Y896 Y897 Y898 Y899 Y900 Y901 Y902 Y903 Y904 Y905 Y906 Y907 Y908 Y909 Y910 Y911 Y912 Y913 Y914 Y915 Y916 Y917 Y918 Y919 Y920 Y921 Y922 Y923 Y924 Y925 Y926 Y927 Y928 Y929 Y930 Y931 Y932 Y933 Y934 Y935 Y936 Y937 Y938 Y939 Y940 Y941 Y942 Y943 Y944 Y945 Y946 Y947 Y948 Y949 Y950 Y951 Y952 Y953 Y954 Y955 Y956 Y957 Y958 Y959 Y960 Y961 Y962 Y963 Y964 Y965 Y966 Y967 Y968 Y969 Y970 Y971 Y972 Y973 Y974 Y975 Y976 Y977 Y978 Y979 Y980 Y981 Y982 Y983 Y984 Y985 Y986 Y987 Y988 Y989 Y990 Y991 Y992 Y993 Y994 Y995 Y996 Y997 Y998 Y999 Y1000 Y1001 Y1002 Y1003 Y1004 Y1005 Y1006 Y1007 Y1008 Y1009 Y1010 Y1011 Y1012 Y1013 Y1014 Y1015 Y1016 Y1017 Y1018 Y1019 Y1020 Y1021 Y1022 Y1023 Y1024 Y1025 Y1026 Y1027 Y1028 Y1029 Y1030 Y1031 Y1032 Y1033 Y1034 Y1035 Y1036 Y1037 Y1038 Y1039 Y1040 Y1041 Y1042 Y1043 Y1044 Y1045 Y1046 Y1047 Y1048 Y1049 Y1050 Y1051 Y1052 Y1053 Y1054 Y1055 Y1056 Y1057 Y1058 Y1059 Y1060 Y1061 Y1062 Y1063 Y1064 Y1065 Y1066 Y1067 Y1068 Y1069 Y1070 Y1071 Y1072 Y1073 Y1074 Y1075 Y1076 Y1077 Y1078 Y1079 Y1080 Y1081 Y1082 Y1083 Y1084 Y1085 Y1086 Y1087 Y1088 Y1089 Y1090 Y1091 Y1092 Y1093 Y1094 Y1095 Y1096 Y1097 Y1098 Y1099 Y1100 Y1101 Y1102 Y1103 Y1104 Y1105 Y1106 Y1107 Y1108 Y1109 Y1110 Y1111 Y1112 Y1113 Y1114 Y1115 Y1116 Y1117 Y1118 Y1119 Y1120 Y1121 Y1122 Y1123 Y1124 Y1125 Y1126 Y1127 Y1128 Y1129 Y1130 Y1131 Y1132 Y1133 Y1134 Y1135 Y1136 Y1137 Y1138 Y1139 Y1140 Y1141 Y1142 Y1143 Y1144 Y1145 Y1146 Y1147 Y1148 Y1149 Y1150 Y1151 Y1152 Y1153 Y1154 Y1155 Y1156 Y1157 Y1158 Y1159 Y1160 Y1161 Y1162 Y1163 Y1164 Y1165 Y1166 Y1167 Y1168 Y1169 Y1170 Y1171 Y1172 Y1173 Y1174 Y1175 Y1176 Y1177 Y1178 Y1179 Y1180 Y1181 Y1182 Y1183 Y1184 Y1185 Y1186 Y1187 Y1188 Y1189 Y1190 Y1191 Y1192 Y1193 Y1194 Y1195 Y1196 Y1197 Y1198 Y1199 Y1200 Y1201 Y1202 Y1203 Y1204 Y1205 Y1206 Y1207 Y1208 Y1209 Y1210 Y1211 Y1212 Y1213 Y1214 Y1215 Y1216 Y1217 Y1218 Y1219 Y1220 Y1221 Y1222 Y1223 Y1224 Y1225 Y1226 Y1227 Y1228 Y1229 Y1230 Y1231 Y1232 Y1233 Y1234 Y1235 Y1236 Y1237 Y1238 Y1239 Y1240 Y1241 Y1242 Y1243 Y1244 Y1245 Y1246 Y1247 Y1248 Y1249 Y1250 Y1251 Y1252 Y1253 Y1254 Y1255 Y1256 Y1257 Y1258 Y1259 Y1260 Y1261 Y1262 Y1263 Y1264 Y1265 Y1266 Y1267 Y1268 Y1269 Y1270 Y1271 Y1272 Y1273 Y1274 Y1275 Y1276 Y1277 Y1278 Y1279 Y1280 Y1281 Y1282 Y1283 Y1284 Y1285 Y1286 Y1287 Y1288 Y1289 Y1290 Y1291 Y1292 Y1293 Y1294 Y1295 Y1296 Y1297 Y1298 Y1299 Y1300 Y1301 Y1302 Y1303 Y1304 Y1305 Y1306 Y1307 Y1308 Y1309 Y1310 Y1311 Y1312 Y1313 Y1314 Y1315 Y1316 Y1317 Y1318 Y1319 Y1320 Y1321 Y1322 Y1323 Y1324 Y1325 Y1326 Y1327 Y1328 Y1329 Y1330 Y1331 Y1332 Y1333 Y1334 Y1335 Y1336 Y1337 Y1338 Y1339 Y1340 Y1341 Y1342 Y1343 Y1344 Y1345 Y1346 Y1347 Y1348 Y1349 Y1350 Y1351 Y1352 Y1353 Y1354 Y1355 Y1356 Y1357 Y1358 Y1359 Y1360 Y1361 Y1362 Y1363 Y1364 Y1365 Y1366 Y1367 Y1368 Y1369 Y1370 Y1371 Y1372 Y1373 Y1374 Y1375 Y1376 Y1377 Y1378 Y1379 Y1380 Y1381 Y1382 Y1383 Y1384 Y1385 Y1386 Y1387 Y1388 Y1389 Y1390 Y1391 Y1392 Y1393 Y1394 Y1395 Y1396 Y1397 Y1398 ;
param A := 
;
param B := 

;
end;
